data/MCDM/NO_CORR/GEN_FROM_60/17_ITEMS_1000_GEN/K5017W11.KNP.mps
NAME          BLANK   
ROWS
 N  OBJROW
 L  R0000000
COLUMNS
    C0000000  OBJROW     -415.         R0000000  200.        
    C0000001  OBJROW     -235.         R0000000  75.         
    C0000002  OBJROW     -543.         R0000000  230.        
    C0000003  OBJROW     -842.         R0000000  821.        
    C0000004  OBJROW     -388.         R0000000  428.        
    C0000005  OBJROW     -121.         R0000000  768.        
    C0000006  OBJROW     -560.         R0000000  755.        
    C0000007  OBJROW     -62.          R0000000  198.        
    C0000008  OBJROW     -317.         R0000000  485.        
    C0000009  OBJROW     -164.         R0000000  836.        
    C0000010  OBJROW     -162.         R0000000  60.         
    C0000011  OBJROW     -594.         R0000000  958.        
    C0000012  OBJROW     -2.           R0000000  656.        
    C0000013  OBJROW     -9.           R0000000  457.        
    C0000014  OBJROW     -934.         R0000000  27.         
    C0000015  OBJROW     -100.         R0000000  843.        
    C0000016  OBJROW     -334.         R0000000  688.        
RHS
    RHS       R0000000  15060.      
BOUNDS
 BV BOUND     C0000000  1.          
 BV BOUND     C0000001  1.          
 BV BOUND     C0000002  1.          
 BV BOUND     C0000003  1.          
 BV BOUND     C0000004  1.          
 BV BOUND     C0000005  1.          
 BV BOUND     C0000006  1.          
 BV BOUND     C0000007  1.          
 BV BOUND     C0000008  1.          
 BV BOUND     C0000009  1.          
 BV BOUND     C0000010  1.          
 BV BOUND     C0000011  1.          
 BV BOUND     C0000012  1.          
 BV BOUND     C0000013  1.          
 BV BOUND     C0000014  1.          
 BV BOUND     C0000015  1.          
 BV BOUND     C0000016  1.          
ENDATA
