interdiction/MCDM/NO_CORR/GEN_FROM_60/17_ITEMS_1000_GEN/K5017W11.KNP.txt
N 17
M 18
LC 17
LC 18
LC 19
LC 20
LC 21
LC 22
LC 23
LC 24
LC 25
LC 26
LC 27
LC 28
LC 29
LC 30
LC 31
LC 32
LC 33
LR 1
LR 2
LR 3
LR 4
LR 5
LR 6
LR 7
LR 8
LR 9
LR 10
LR 11
LR 12
LR 13
LR 14
LR 15
LR 16
LR 17
LR 18
LO -415
LO -235
LO -543
LO -842
LO -388
LO -121
LO -560
LO -62
LO -317
LO -164
LO -162
LO -594
LO -2
LO -9
LO -934
LO -100
LO -334
OS 1
IC 628
IC 437
IC 709
IC 571
IC 141
IC 790
IC 793
IC 520
IC 201
IC 905
IC 850
IC 895
IC 738
IC 567
IC 626
IC 250
IC 384
IB 5003
